\ LP format - for model browsing. Use MPS format to capture full model detail.
Minimize
  zeta_sub_3
Subject To
 R0: zeta_sub_3 - 1.27021725e+08 y_3_0 - 3.58415686e+08 y_3_1
   - 2.67583337e+08 y_3_2 - 2.68598909e+08 y_3_3 - 1.84268544e+08 y_3_4
   - 1.30999914e+08 y_3_5 - 3.5936402e+08 y_3_6 - 3.02683542e+08 y_3_7
   - 1.89948585e+08 y_3_8 - 4.5938123e+07 y_3_9 - 1.61938802e+08 y_3_10
   - 5.1336008e+07 y_3_11 - 1.37343265e+08 y_3_12 - 1.6397775e+07 y_3_13
   - 3.53320012e+08 y_3_14 - 1.11576163e+08 y_3_15 - 1.8308534e+08 y_3_16
   - 6.0794784e+07 y_3_17 + 1.450126e+07 y_3_18 - 2.05913382e+08 y_3_19
   - 6.4925036e+07 y_3_20 - 2.98853602e+08 y_3_21 - 2.35317413e+08 y_3_22
   >= 0
 R1: y_3_6 + y_3_7 + y_3_8 + y_3_9 + y_3_10 = 1
 R2: y_3_16 + y_3_17 + y_3_18 = 0
 R3: - y_3_6 + y_3_11 + y_3_12 + y_3_13 = 0
 R4: y_3_0 + y_3_1 + y_3_2 - y_3_9 = 0
 R5: - y_3_0 + y_3_3 + y_3_4 - y_3_8 - y_3_11 = 0
 R6: - y_3_2 + y_3_14 + y_3_15 - y_3_17 = 0
 R7: - y_3_10 - y_3_13 - y_3_16 + y_3_19 + y_3_20 = 0
 R8: - y_3_7 - y_3_12 + y_3_21 = 0
 R9: - y_3_4 - y_3_15 - y_3_18 - y_3_19 + y_3_22 = 0
 R10: - y_3_1 - y_3_3 + y_3_5 = 0
 R11: - y_3_5 - y_3_14 - y_3_20 - y_3_21 - y_3_22 = -1
Bounds
 y_3_0 <= 1
 y_3_1 <= 1
 y_3_2 <= 1
 y_3_3 <= 1
 y_3_4 <= 1
 y_3_5 <= 1
 y_3_6 <= 1
 y_3_7 <= 1
 y_3_8 <= 1
 y_3_9 <= 1
 y_3_10 <= 1
 y_3_11 <= 1
 y_3_12 <= 1
 y_3_13 <= 1
 y_3_14 <= 1
 y_3_15 <= 1
 y_3_16 <= 1
 y_3_17 <= 1
 y_3_18 <= 1
 y_3_19 <= 1
 y_3_20 <= 1
 y_3_21 <= 1
 y_3_22 <= 1
End
